
  32    4
  10   10   10   10

   0   0   0   0   0   1 2 
   6   1   1   1   0   2 6 3 
   9   4   4   4   0   1 4 
   2   7   2   3   0   2 12 5 
   6   7   4   0   1   2 10 7 
  10   2   0   8   4   2 12 7 
   7   4   3   0   3   1 8 
   7   5   4   3   0   2 19 9 
   9   4   2   2   0   2 15 11 
   2   6   4   0   3   2 19 13 
   5   3   4   0   2   1 13 
   5   3   0   6   2   2 16 15 
   3   2   5   4   0   1 14 
   5   4   0   2   6   2 21 16 
   2   0   6   1   5   2 21 17 
   7   3   5   3   0   1 17 
   2   3   8   7   0   1 18 
   8   3   5   4   0   2 24 20 
   8   3   4   0   7   2 24 20 
   2   0   4   6   3   1 22 
   1   7   3   4   0   1 22 
   6   4   4   4   0   1 23 
   7   1   4   0   3   2 26 25 
   9   0   7   8   6   2 27 26 
   1   4   2   0   7   1 27 
   6   4   0   7   4   2 30 29 
  10   0   4   4   4   1 28 
  10   0   1   2   4   1 29 
   6   6   0   3   4   1 31 
   5   5   0   4   4   1 31 
   8   5   6   2   0   1 32
   0   0   0   0   0   0 
